sat
(= |goto_symex::&92;guard#1| true)
(= |goto_symex::&92;guard#2| true)
(= |goto_symex::&92;guard#3| true)
(= |goto_symex::&92;guard#4| false)
(= |memory_model::choice_rf_1_5_0_12_T_0| false)
(= |memory_model::choice_rf_1_5_2_6_T_1| false)
(= |memory_model::choice_rf_1_5_3_39_T_2| true)
(= |memory_model::choice_rf_1_5_4_38_T_3| false)
(= |memory_model::choice_rf_2_5_0_12_T_4| false)
(= |memory_model::choice_rf_2_5_1_6_T_5| false)
(= |memory_model::choice_rf_2_5_3_39_T_6| true)
(= |memory_model::choice_rf_2_5_4_38_T_7| false)
(= |memory_model::choice_rf_3_38_0_12_T_8| true)
(= |memory_model::choice_rf_3_38_1_6_T_9| false)
(= |memory_model::choice_rf_3_38_2_6_T_10| false)
(= |memory_model::choice_rf_3_38_4_38_T_11| false)
(= |memory_model::choice_rf_4_37_0_12_T_12| false)
(= |memory_model::choice_rf_4_37_1_6_T_13| false)
(= |memory_model::choice_rf_4_37_2_6_T_14| false)
(= |memory_model::choice_rf_4_37_3_39_T_15| true)
(= |memory_model::choice_rf_0_68_0_10_T_16| false)
(= |memory_model::choice_rf_0_68_0_64_T_17| true)
(= |memory_model::choice_rf_0_73_0_10_T_18| false)
(= |memory_model::choice_rf_0_73_0_64_T_19| false)
(= |memory_model::choice_rf_0_73_0_69_T_20| true)
(= |memory_model::choice_rf_0_78_0_10_T_21| false)
(= |memory_model::choice_rf_0_78_0_64_T_22| false)
(= |memory_model::choice_rf_0_78_0_69_T_23| false)
(= |memory_model::choice_rf_0_78_0_74_T_24| true)
(= |memory_model::choice_rf_2_0_0_42_F_25| false)
(= |memory_model::choice_rf_2_0_1_2_F_26| true)
(= |memory_model::choice_rf_0_82_0_13_F_27| false)
(= |memory_model::choice_rf_0_82_1_4_F_28| true)
(= |memory_model::choice_rf_0_82_2_4_F_29| false)
(= |memory_model::choice_rf_0_82_3_37_F_30| false)
(= |memory_model::choice_rf_0_82_4_36_F_31| false)
(= |memory_model::choice_rf_1_3_0_13_F_32| false)
(= |memory_model::choice_rf_1_3_2_4_F_33| false)
(= |memory_model::choice_rf_1_3_3_37_F_34| true)
(= |memory_model::choice_rf_1_3_4_36_F_35| false)
(= |memory_model::choice_rf_2_3_0_13_F_36| false)
(= |memory_model::choice_rf_2_3_1_4_F_37| false)
(= |memory_model::choice_rf_2_3_3_37_F_38| false)
(= |memory_model::choice_rf_2_3_4_36_F_39| true)
(= |memory_model::choice_rf_3_36_0_13_F_40| false)
(= |memory_model::choice_rf_3_36_1_4_F_41| false)
(= |memory_model::choice_rf_3_36_2_4_F_42| true)
(= |memory_model::choice_rf_3_36_4_36_F_43| false)
(= |memory_model::choice_rf_4_35_0_13_F_44| true)
(= |memory_model::choice_rf_4_35_1_4_F_45| false)
(= |memory_model::choice_rf_4_35_2_4_F_46| false)
(= |memory_model::choice_rf_4_35_3_37_F_47| false)
(= |memory_model::choice_rf_0_100_0_14_F_48| false)
(= |memory_model::choice_rf_0_100_1_1_F_49| true)
(= |memory_model::choice_rf_0_99_0_15_F_50| false)
(= |memory_model::choice_rf_0_99_2_1_F_51| true)
(= |memory_model::choice_rf_0_98_0_16_F_52| false)
(= |memory_model::choice_rf_0_98_3_1_F_53| true)
(= |memory_model::choice_rf_0_101_0_17_F_54| false)
(= |memory_model::choice_rf_0_101_4_14_F_55| false)
(= |memory_model::choice_rf_0_103_0_30_F_56| false)
(= |memory_model::choice_rf_0_103_4_21_F_57| true)
(= |memory_model::choice_rf_1_0_0_36_F_58| false)
(= |memory_model::choice_rf_1_0_4_22_F_59| true)
(= |memory_model::choice_rf_0_84_0_37_F_60| false)
(= |memory_model::choice_rf_0_84_0_83_F_61| true)
(= |memory_model::choice_rf_0_97_0_38_F_62| false)
(= |memory_model::choice_rf_0_108_0_38_F_63| false)
(= |memory_model::choice_rf_0_108_0_105_F_64| true)
(= |memory_model::choice_rf_0_109_0_38_F_65| false)
(= |memory_model::choice_rf_0_109_0_105_F_66| true)
(= |memory_model::choice_rf_3_0_0_43_F_67| false)
(= |memory_model::choice_rf_3_0_2_2_F_68| true)
(= |memory_model::choice_rf_0_85_0_44_F_69| false)
(= |memory_model::choice_rf_0_85_3_35_F_70| false)
(= |memory_model::choice_rf_0_85_4_15_F_71| false)
(= |memory_model::choice_rf_0_85_4_34_F_72| true)
(= |memory_model::choice_rf_3_24_0_44_F_73| false)
(= |memory_model::choice_rf_3_24_0_96_F_74| false)
(= |memory_model::choice_rf_3_24_4_15_F_75| true)
(= |memory_model::choice_rf_3_24_4_34_F_76| false)
(= |memory_model::choice_rf_4_6_0_44_F_77| true)
(= |memory_model::choice_rf_4_6_0_96_F_78| false)
(= |memory_model::choice_rf_4_6_3_35_F_79| false)
(= |memory_model::choice_rf_4_23_0_44_F_80| false)
(= |memory_model::choice_rf_4_23_0_96_F_81| false)
(= |memory_model::choice_rf_4_23_3_35_F_82| true)
(= |memory_model::choice_rf_4_23_4_15_F_83| false)
(= |memory_model::choice_rf_0_90_0_47_F_84| true)
(= |memory_model::choice_rf_3_12_0_47_F_85| true)
(= |memory_model::choice_rf_3_12_0_93_F_86| false)
(= |memory_model::choice_rf_3_10_0_48_F_87| true)
(= |memory_model::choice_rf_3_3_0_49_F_88| true)
(= |memory_model::choice_rf_3_2_0_50_F_89| true)
(= |memory_model::choice_rf_3_28_0_50_F_90| false)
(= |memory_model::choice_rf_3_28_3_14_F_91| true)
(= |memory_model::choice_rf_3_9_0_51_F_92| false)
(= |memory_model::choice_rf_3_9_4_18_F_93| true)
(= |memory_model::choice_rf_3_9_4_31_F_94| false)
(= |memory_model::choice_rf_4_2_0_51_F_95| true)
(= |memory_model::choice_rf_4_27_0_51_F_96| false)
(= |memory_model::choice_rf_4_27_4_18_F_97| true)
(= |memory_model::choice_rf_0_88_0_52_F_98| false)
(= |memory_model::choice_rf_0_88_3_21_F_99| true)
(= |memory_model::choice_rf_3_11_0_52_F_100| false)
(= |memory_model::choice_rf_3_11_0_92_F_101| false)
(= |memory_model::choice_rf_3_5_0_53_F_102| false)
(= |memory_model::choice_rf_3_4_0_54_F_103| false)
(= |memory_model::choice_rf_3_7_0_55_F_104| false)
(= |memory_model::choice_rf_3_29_0_55_F_105| false)
(= |memory_model::choice_rf_3_29_3_18_F_106| true)
(= |memory_model::choice_rf_3_6_0_56_F_107| false)
(= |memory_model::choice_rf_3_6_4_20_F_108| false)
(= |memory_model::choice_rf_3_6_4_30_F_109| false)
(= |memory_model::choice_rf_4_3_0_56_F_110| true)
(= |memory_model::choice_rf_4_3_3_17_F_111| false)
(= |memory_model::choice_rf_4_28_0_56_F_112| false)
(= |memory_model::choice_rf_4_28_3_17_F_113| true)
(= |memory_model::choice_rf_4_28_4_20_F_114| false)
(= |memory_model::choice_rf_0_89_0_59_F_115| false)
(= |memory_model::choice_rf_0_89_3_22_F_116| true)
(= |memory_model::choice_rf_0_89_4_17_F_117| false)
(= |memory_model::choice_rf_3_13_0_59_F_118| false)
(= |memory_model::choice_rf_3_13_4_17_F_119| true)
(= |memory_model::choice_rf_3_27_0_59_F_120| false)
(= |memory_model::choice_rf_3_27_3_22_F_121| true)
(= |memory_model::choice_rf_3_27_4_17_F_122| false)
(= |memory_model::choice_rf_4_1_0_59_F_123| true)
(= |memory_model::choice_rf_4_1_3_22_F_124| false)
(= |memory_model::choice_rf_4_26_0_59_F_125| false)
(= |memory_model::choice_rf_4_26_3_22_F_126| true)
(= |memory_model::choice_rf_4_26_4_17_F_127| false)
(= |memory_model::choice_rf_0_91_0_60_F_128| false)
(= |memory_model::choice_rf_0_91_3_19_F_129| false)
(= |memory_model::choice_rf_0_91_3_34_F_130| false)
(= |memory_model::choice_rf_0_91_4_19_F_131| false)
(= |memory_model::choice_rf_0_91_4_33_F_132| true)
(= |memory_model::choice_rf_3_8_0_60_F_133| false)
(= |memory_model::choice_rf_3_8_0_95_F_134| false)
(= |memory_model::choice_rf_3_8_4_19_F_135| true)
(= |memory_model::choice_rf_3_8_4_33_F_136| false)
(= |memory_model::choice_rf_3_30_0_60_F_137| false)
(= |memory_model::choice_rf_3_30_0_95_F_138| false)
(= |memory_model::choice_rf_3_30_3_19_F_139| true)
(= |memory_model::choice_rf_3_30_4_19_F_140| false)
(= |memory_model::choice_rf_3_30_4_33_F_141| false)
(= |memory_model::choice_rf_4_4_0_60_F_142| true)
(= |memory_model::choice_rf_4_4_0_95_F_143| false)
(= |memory_model::choice_rf_4_4_3_19_F_144| false)
(= |memory_model::choice_rf_4_4_3_34_F_145| false)
(= |memory_model::choice_rf_4_29_0_60_F_146| false)
(= |memory_model::choice_rf_4_29_0_95_F_147| false)
(= |memory_model::choice_rf_4_29_3_19_F_148| false)
(= |memory_model::choice_rf_4_29_3_34_F_149| true)
(= |memory_model::choice_rf_4_29_4_19_F_150| false)
(= |memory_model::choice_rf_0_86_0_61_F_151| false)
(= |memory_model::choice_rf_0_86_3_23_F_152| true)
(= |memory_model::choice_rf_0_86_4_16_F_153| false)
(= |memory_model::choice_rf_3_25_0_61_F_154| false)
(= |memory_model::choice_rf_3_25_3_23_F_155| true)
(= |memory_model::choice_rf_3_25_4_16_F_156| false)
(= |memory_model::choice_rf_4_5_0_61_F_157| true)
(= |memory_model::choice_rf_4_5_3_23_F_158| false)
(= |memory_model::choice_rf_4_24_0_61_F_159| false)
(= |memory_model::choice_rf_4_24_3_23_F_160| true)
(= |memory_model::choice_rf_4_24_4_16_F_161| false)
(= |memory_model::choice_rf_0_87_0_62_F_162| false)
(= |memory_model::choice_rf_0_87_3_20_F_163| false)
(= |memory_model::choice_rf_0_87_3_32_F_164| false)
(= |memory_model::choice_rf_0_87_4_11_F_165| false)
(= |memory_model::choice_rf_0_87_4_32_F_166| true)
(= |memory_model::choice_rf_3_26_0_62_F_167| false)
(= |memory_model::choice_rf_3_26_0_94_F_168| false)
(= |memory_model::choice_rf_3_26_3_20_F_169| true)
(= |memory_model::choice_rf_3_26_4_11_F_170| false)
(= |memory_model::choice_rf_3_26_4_32_F_171| false)
(= |memory_model::choice_rf_4_0_0_62_F_172| true)
(= |memory_model::choice_rf_4_0_0_94_F_173| false)
(= |memory_model::choice_rf_4_0_3_20_F_174| false)
(= |memory_model::choice_rf_4_0_3_32_F_175| false)
(= |memory_model::choice_rf_4_25_0_62_F_176| false)
(= |memory_model::choice_rf_4_25_0_94_F_177| false)
(= |memory_model::choice_rf_4_25_3_20_F_178| false)
(= |memory_model::choice_rf_4_25_3_32_F_179| true)
(= |memory_model::choice_rf_4_25_4_11_F_180| false)
(= |memory_model::choice_rf_0_104_0_40_F_181| false)
(= |memory_model::choice_rf_0_104_4_9_F_182| false)
(= |memory_model::choice_rf_0_102_0_3_F_183| true)
(= |memory_model::choice_ws-ext_0_12_1_6_T_184| true)
(= |memory_model::choice_ws-ext_0_12_2_6_T_185| true)
(= |memory_model::choice_ws-ext_0_12_3_39_T_186| true)
(= |memory_model::choice_ws-ext_0_12_4_38_T_187| true)
(= |memory_model::choice_ws-ext_1_6_2_6_T_188| true)
(= |memory_model::choice_ws-ext_1_6_3_39_T_189| false)
(= |memory_model::choice_ws-ext_1_6_4_38_T_190| true)
(= |memory_model::choice_ws-ext_2_6_3_39_T_191| false)
(= |memory_model::choice_ws-ext_2_6_4_38_T_192| false)
(= |memory_model::choice_ws-ext_3_39_4_38_T_193| true)
(= |memory_model::choice_ws-ext_0_42_1_2_F_194| true)
(= |memory_model::choice_ws-ext_0_13_1_4_F_195| true)
(= |memory_model::choice_ws-ext_0_13_2_4_F_196| true)
(= |memory_model::choice_ws-ext_0_13_3_37_F_197| true)
(= |memory_model::choice_ws-ext_0_13_4_36_F_198| true)
(= |memory_model::choice_ws-ext_1_4_2_4_F_199| false)
(= |memory_model::choice_ws-ext_1_4_3_37_F_200| false)
(= |memory_model::choice_ws-ext_1_4_4_36_F_201| false)
(= |memory_model::choice_ws-ext_2_4_3_37_F_202| true)
(= |memory_model::choice_ws-ext_2_4_4_36_F_203| false)
(= |memory_model::choice_ws-ext_3_37_4_36_F_204| false)
(= |memory_model::choice_ws-ext_0_14_1_1_F_205| true)
(= |memory_model::choice_ws-ext_0_15_2_1_F_206| true)
(= |memory_model::choice_ws-ext_0_16_3_1_F_207| true)
(= |memory_model::choice_ws-ext_0_17_4_14_F_208| true)
(= |memory_model::choice_ws-ext_0_106_4_14_F_209| false)
(= |memory_model::choice_ws-ext_0_30_4_21_F_210| true)
(= |memory_model::choice_ws-ext_0_31_4_7_F_211| true)
(= |memory_model::choice_ws-ext_0_36_4_22_F_212| true)
(= |memory_model::choice_ws-ext_0_43_2_2_F_213| true)
(= |memory_model::choice_ws-ext_0_44_3_35_F_214| true)
(= |memory_model::choice_ws-ext_0_44_4_15_F_215| true)
(= |memory_model::choice_ws-ext_0_44_4_34_F_216| true)
(= |memory_model::choice_ws-ext_0_96_3_35_F_217| false)
(= |memory_model::choice_ws-ext_0_96_4_15_F_218| false)
(= |memory_model::choice_ws-ext_0_96_4_34_F_219| false)
(= |memory_model::choice_ws-ext_3_35_4_15_F_220| false)
(= |memory_model::choice_ws-ext_3_35_4_34_F_221| true)
(= |memory_model::choice_ws-ext_0_45_4_12_F_222| true)
(= |memory_model::choice_ws-ext_0_46_4_13_F_223| true)
(= |memory_model::choice_ws-ext_0_50_3_14_F_224| true)
(= |memory_model::choice_ws-ext_0_50_3_31_F_225| true)
(= |memory_model::choice_ws-ext_0_51_4_18_F_226| true)
(= |memory_model::choice_ws-ext_0_51_4_31_F_227| true)
(= |memory_model::choice_ws-ext_0_52_3_21_F_228| true)
(= |memory_model::choice_ws-ext_0_92_3_21_F_229| false)
(= |memory_model::choice_ws-ext_0_53_3_16_F_230| true)
(= |memory_model::choice_ws-ext_0_54_3_15_F_231| true)
(= |memory_model::choice_ws-ext_0_55_3_18_F_232| true)
(= |memory_model::choice_ws-ext_0_55_3_33_F_233| true)
(= |memory_model::choice_ws-ext_0_56_3_17_F_234| true)
(= |memory_model::choice_ws-ext_0_56_4_20_F_235| true)
(= |memory_model::choice_ws-ext_0_56_4_30_F_236| true)
(= |memory_model::choice_ws-ext_3_17_4_20_F_237| false)
(= |memory_model::choice_ws-ext_3_17_4_30_F_238| true)
(= |memory_model::choice_ws-ext_0_59_3_22_F_239| true)
(= |memory_model::choice_ws-ext_0_59_4_17_F_240| true)
(= |memory_model::choice_ws-ext_3_22_4_17_F_241| false)
(= |memory_model::choice_ws-ext_0_60_3_19_F_242| true)
(= |memory_model::choice_ws-ext_0_60_3_34_F_243| true)
(= |memory_model::choice_ws-ext_0_60_4_19_F_244| true)
(= |memory_model::choice_ws-ext_0_60_4_33_F_245| true)
(= |memory_model::choice_ws-ext_0_95_3_19_F_246| false)
(= |memory_model::choice_ws-ext_0_95_3_34_F_247| false)
(= |memory_model::choice_ws-ext_0_95_4_19_F_248| false)
(= |memory_model::choice_ws-ext_0_95_4_33_F_249| false)
(= |memory_model::choice_ws-ext_3_19_4_19_F_250| false)
(= |memory_model::choice_ws-ext_3_19_4_33_F_251| true)
(= |memory_model::choice_ws-ext_3_34_4_19_F_252| false)
(= |memory_model::choice_ws-ext_3_34_4_33_F_253| true)
(= |memory_model::choice_ws-ext_0_61_3_23_F_254| true)
(= |memory_model::choice_ws-ext_0_61_4_16_F_255| true)
(= |memory_model::choice_ws-ext_3_23_4_16_F_256| false)
(= |memory_model::choice_ws-ext_0_62_3_20_F_257| true)
(= |memory_model::choice_ws-ext_0_62_3_32_F_258| true)
(= |memory_model::choice_ws-ext_0_62_4_11_F_259| true)
(= |memory_model::choice_ws-ext_0_62_4_32_F_260| true)
(= |memory_model::choice_ws-ext_0_94_3_20_F_261| false)
(= |memory_model::choice_ws-ext_0_94_3_32_F_262| false)
(= |memory_model::choice_ws-ext_0_94_4_11_F_263| false)
(= |memory_model::choice_ws-ext_0_94_4_32_F_264| false)
(= |memory_model::choice_ws-ext_3_20_4_11_F_265| false)
(= |memory_model::choice_ws-ext_3_20_4_32_F_266| true)
(= |memory_model::choice_ws-ext_3_32_4_11_F_267| false)
(= |memory_model::choice_ws-ext_3_32_4_32_F_268| true)
(= |memory_model::choice_ws-ext_0_39_4_8_F_269| true)
(= |memory_model::choice_ws-ext_0_40_4_9_F_270| true)
(= |memory_model::choice_ws-ext_0_107_4_9_F_271| false)
(= |memory_model::choice_ws-ext_0_41_4_10_F_272| true)
(= |main$tmp_guard0#3| #b00000001)
(= |__CPROVER_next_thread_id#3| #b00000000000000000000000000000001)
(= |__CPROVER_next_thread_id#6| #b00000000000000000000000000000010)
(= |__CPROVER_next_thread_id#9| #b00000000000000000000000000000011)
(= |__unbuffered_cnt#2| #b00000000000000000000000000000100)
(= |z$w_buff0_used#2| #b00000000)
(= |z$r_buff0_thd0#2| #b00000000)
(= |z$w_buff0#2| #b00000000000000000000000000000001)
(= |z$w_buff1_used#2| #b00000000)
(= |z$r_buff1_thd0#2| #b00000000)
(= |z$w_buff1#2| #b00000000000000000000000000000000)
(= |z#2| #b00000000000000000000000000000001)
(= |z#4| #b00000000000000000000000000000001)
(= |z$w_buff0_used#6| #b00000000)
(= |z$w_buff1_used#6| #b00000000)
(= |z$r_buff0_thd0#8| #b00000000)
(= |z$r_buff1_thd0#7| #b00000000)
(= |nondet_symex::nondet0| #b10000000000000000000000000000000)
(= |weak$$choice1#2| #b00000001)
(= |weak$$choice1#3| #b10000000)
(= |__unbuffered_p3_EAX$read_delayed#2| #b00000001)
(= |__unbuffered_p3_EAX$read_delayed_var$object#1| #b00000000000000000000000000000001)
(= |__unbuffered_p3_EAX#2| #b00000000000000000000000000000001)
(= |__unbuffered_p3_EAX#8| #b00000000000000000000000000000001)
(= |__unbuffered_p0_EAX#2| #b00000000000000000000000000000001)
(= |__unbuffered_p1_EAX#2| #b00000000000000000000000000000001)
(= |__unbuffered_p2_EAX#2| #b00000000000000000000000000000001)
(= |main$tmp_guard1#2| #b00000000)
(= |main$tmp_guard1#3| #b00000000)
(= |main$tmp_guard1#6| #b00000000)
(= |pthread_create::1::this_thread_id!1@0#0| #b00000000000000000000000000000000)
(= |a#2| #b00000000000000000000000000000001)
(= |__unbuffered_cnt#4| #b00000000000000000000000000000011)
(= |pthread_create::1::this_thread_id!2@0#0| #b00000000000000000000000000000000)
(= |x#3| #b00000000000000000000000000000001)
(= |__unbuffered_cnt#7| #b00000000000000000000000000000001)
(= |pthread_create::1::this_thread_id!3@0#0| #b00000000000000000000000000000000)
(= |y#3| #b00000000000000000000000000000001)
(= |z$w_buff0#4| #b00000000000000000000000000000000)
(= |z$w_buff0_used#11| #b00000000)
(= |z$r_buff0_thd0#11| #b00000000)
(= |z$r_buff1_thd0#9| #b00000000)
(= |z$r_buff1_thd0#10| #b10000000)
(= |z$r_buff0_thd1#2| #b00000000)
(= |z$r_buff1_thd1#2| #b00000000)
(= |z$r_buff1_thd1#3| #b10000000)
(= |z$r_buff0_thd2#2| #b00000000)
(= |z$r_buff1_thd2#2| #b00000000)
(= |z$r_buff1_thd2#3| #b10000000)
(= |z$r_buff0_thd3#2| #b00000000)
(= |z$r_buff1_thd3#2| #b00000000)
(= |z$r_buff1_thd3#3| #b10000000)
(= |z$r_buff0_thd4#2| #b00000000)
(= |z$r_buff1_thd4#2| #b00000000)
(= |z$r_buff1_thd4#3| #b10000000)
(= |z$r_buff0_thd3#4| #b00000001)
(= |z$w_buff0_used#14| #b00000001)
(= |z$r_buff0_thd3#6| #b00000001)
(= |z$w_buff0#7| #b00000000000000000000000000000001)
(= |z$w_buff1_used#10| #b00000000)
(= |z$r_buff1_thd3#5| #b00000000)
(= |z$w_buff1#5| #b00000000000000000000000000000000)
(= |z#6| #b00000000000000000000000000000000)
(= |z#8| #b00000000000000000000000000000001)
(= |z$w_buff0_used#18| #b00000000)
(= |z$w_buff1_used#14| #b00000000)
(= |z$r_buff0_thd3#12| #b00000001)
(= |z$r_buff1_thd3#10| #b00000000)
(= |__unbuffered_cnt#10| #b00000000000000000000000000000010)
(= |__unbuffered_cnt#12| #b00000000000000000000000000000011)
(= |pthread_create::1::this_thread_id!4@0#0| #b00000000000000000000000000000000)
(= |nondet_symex::nondet4| #b10000000000000000000000000000000)
(= |nondet_symex::nondet5| #b00000000000000000000000000000000)
(= |z#10| #b00000000000000000000000000000000)
(= |nondet_symex::nondet6| #b00000000000000000000000000000000)
(= |z$w_buff0_used#23| #b00000000)
(= |z$r_buff0_thd4#4| #b00000000)
(= |z$w_buff0#9| #b00000000000000000000000000000000)
(= |z$r_buff1_thd4#5| #b00000000)
(= |z$w_buff1_used#17| #b00000000)
(= |z$w_buff1#7| #b00000000000000000000000000000000)
(= |z$w_buff0_used#26| #b00000000)
(= |z$r_buff0_thd4#7| #b00000000)
(= |z$w_buff0#12| #b00000000000000000000000000000001)
(= |z$w_buff1_used#20| #b00000000)
(= |z$r_buff1_thd4#8| #b00000000)
(= |z$w_buff1#10| #b00000000000000000000000000000000)
(= |z#14| #b00000000000000000000000000000001)
(= |__unbuffered_cnt#14| #b00000000000000000000000000000000)
(= |__CPROVER_threads_exited#1$wclk$8| #b00001100)
(= |__CPROVER_threads_exited#2$rclk$8| #b11111100)
(= |__CPROVER_threads_exited#5$wclk$8| #b11111111)
(= |__CPROVER_threads_exited#7$wclk$8| #b11111011)
(= |__CPROVER_threads_exited#9$wclk$8| #b11111110)
(= |__CPROVER_threads_exited#4$rclk$8| #b11111100)
(= |__CPROVER_threads_exited#3$wclk$8| #b11111101)
(= |__CPROVER_threads_exited#6$rclk$8| #b11111010)
(= |__CPROVER_threads_exited#8$rclk$8| #b11111100)
(= |x#1$wclk$8| #b00111111)
(= |x#3$rclk$8| #b10101110)
(= |x#2$wclk$8| #b10101101)
(= |__unbuffered_cnt#6$wclk$8| #b11111001)
(= |__unbuffered_cnt#2$rclk$8| #b11111010)
(= |__unbuffered_cnt#9$wclk$8| #b11011000)
(= |__unbuffered_cnt#13$wclk$8| #b11111000)
(= |__unbuffered_cnt#16$wclk$8| #b10111101)
(= |__unbuffered_cnt#1$wclk$8| #b00001101)
(= |__unbuffered_cnt#4$rclk$8| #b11111001)
(= |__unbuffered_cnt#7$rclk$8| #b11011000)
(= |__unbuffered_cnt#10$rclk$8| #b11111000)
(= |__unbuffered_cnt#14$rclk$8| #b10111101)
(= |__unbuffered_p0_EAX#4$wclk$8| #b10101100)
(= |__unbuffered_p0_EAX#2$rclk$8| #b11111101)
(= |__unbuffered_p1_EAX#4$wclk$8| #b10101110)
(= |__unbuffered_p1_EAX#2$rclk$8| #b11111101)
(= |__unbuffered_p2_EAX#4$wclk$8| #b10110000)
(= |__unbuffered_p2_EAX#2$rclk$8| #b11111101)
(= |__unbuffered_p3_EAX#11$wclk$8| #b01101010)
(= |__unbuffered_p3_EAX#2$rclk$8| #b11111101)
(= |__unbuffered_p3_EAX$read_delayed#4$wclk$8| #b01101010)
(= |__unbuffered_p3_EAX$read_delayed#2$rclk$8| #b11111101)
(= |a#1$wclk$8| #b00111001)
(= |a#2$rclk$8| #b10101100)
(= |a#4$wclk$8| #b10101011)
(= |main$tmp_guard1#5| #b00000000)
(= |y#1$wclk$8| #b01000000)
(= |y#3$rclk$8| #b10110000)
(= |y#2$wclk$8| #b10101111)
(= |z#9$wclk$8| #b10110101)
(= |z#2$rclk$8| #b11111100)
(= |z#13$wclk$8| #b01101010)
(= |z#16$wclk$8| #b10111100)
(= |z#1$wclk$8| #b01000001)
(= |z#6$rclk$8| #b10110101)
(= |z#5$wclk$8| #b11111100)
(= |z#10$rclk$8| #b01101010)
(= |z#14$rclk$8| #b10111100)
(= |z$r_buff0_thd0#1$wclk$8| #b01000100)
(= |z$r_buff0_thd0#11$rclk$8| #b10110010)
(= |z$r_buff0_thd0#10$wclk$8| #b11111100)
(= |z$r_buff0_thd1#1$wclk$8| #b01000101)
(= |z$r_buff0_thd1#2$rclk$8| #b10110010)
(= |z$r_buff0_thd2#1$wclk$8| #b01000110)
(= |z$r_buff0_thd2#2$rclk$8| #b10110010)
(= |z$r_buff0_thd3#1$wclk$8| #b01000111)
(= |z$r_buff0_thd3#2$rclk$8| #b10110010)
(= |z$r_buff0_thd3#6$rclk$8| #b10110101)
(= |z$r_buff0_thd4#1$wclk$8| #b01001010)
(= |z$r_buff0_thd4#2$rclk$8| #b10110010)
(= |z$r_buff0_thd4#6$wclk$8| #b01101010)
(= |z$r_buff0_thd4#9$wclk$8| #b10111100)
(= |z$r_buff0_thd4#4$rclk$8| #b01101010)
(= |z$r_buff0_thd4#7$rclk$8| #b10111100)
(= |z$r_buff1_thd0#11$wclk$8| #b10110010)
(= |z$r_buff1_thd0#2$rclk$8| #b11111100)
(= |z$r_buff1_thd0#1$wclk$8| #b01001011)
(= |z$r_buff1_thd0#10$rclk$8| #b10110010)
(= |z$r_buff1_thd0#8$wclk$8| #b11111100)
(= |z$r_buff1_thd1#1$wclk$8| #b01001100)
(= |z$r_buff1_thd1#3$rclk$8| #b10110010)
(= |z$r_buff1_thd2#1$wclk$8| #b01001101)
(= |z$r_buff1_thd2#3$rclk$8| #b10110010)
(= |z$r_buff1_thd3#1$wclk$8| #b01001110)
(= |z$r_buff1_thd3#3$rclk$8| #b10110010)
(= |z$r_buff1_thd3#5$rclk$8| #b10110101)
(= |z$r_buff1_thd4#1$wclk$8| #b01001111)
(= |z$r_buff1_thd4#3$rclk$8| #b10110010)
(= |z$r_buff1_thd4#7$wclk$8| #b01101010)
(= |z$r_buff1_thd4#10$wclk$8| #b10111100)
(= |z$r_buff1_thd4#5$rclk$8| #b01101010)
(= |z$r_buff1_thd4#4$wclk$8| #b10110010)
(= |z$r_buff1_thd4#8$rclk$8| #b10111100)
(= |z$w_buff0#6$wclk$8| #b10110010)
(= |z$w_buff0#2$rclk$8| #b11111100)
(= |z$w_buff0#11$wclk$8| #b01101010)
(= |z$w_buff0#1$wclk$8| #b01010010)
(= |z$w_buff0#4$rclk$8| #b10110010)
(= |z$w_buff0#7$rclk$8| #b10110101)
(= |z$w_buff0#9$rclk$8| #b01101010)
(= |z$w_buff0#12$rclk$8| #b10111100)
(= |z$w_buff0_used#13$wclk$8| #b10110010)
(= |z$w_buff0_used#2$rclk$8| #b11111100)
(= |z$w_buff0_used#22$wclk$8| #b10110101)
(= |z$w_buff0_used#25$wclk$8| #b01101010)
(= |z$w_buff0_used#28$wclk$8| #b10111100)
(= |z$w_buff0_used#1$wclk$8| #b01010011)
(= |z$w_buff0_used#11$rclk$8| #b10110010)
(= |z$w_buff0_used#10$wclk$8| #b11111100)
(= |z$w_buff0_used#14$rclk$8| #b10110101)
(= |z$w_buff0_used#23$rclk$8| #b01101010)
(= |z$w_buff0_used#26$rclk$8| #b10111100)
(= |z$w_buff1#4$wclk$8| #b10110010)
(= |z$w_buff1#2$rclk$8| #b11111100)
(= |z$w_buff1#9$wclk$8| #b01101010)
(= |z$w_buff1#1$wclk$8| #b01010100)
(= |z$w_buff1#5$rclk$8| #b10110101)
(= |z$w_buff1#7$rclk$8| #b01101010)
(= |z$w_buff1#10$rclk$8| #b10111100)
(= |z$w_buff1_used#9$wclk$8| #b10110010)
(= |z$w_buff1_used#2$rclk$8| #b11111100)
(= |z$w_buff1_used#16$wclk$8| #b10110101)
(= |z$w_buff1_used#19$wclk$8| #b01101010)
(= |z$w_buff1_used#22$wclk$8| #b10111100)
(= |z$w_buff1_used#1$wclk$8| #b01010101)
(= |z$w_buff1_used#10$rclk$8| #b10110101)
(= |z$w_buff1_used#8$wclk$8| #b11111100)
(= |z$w_buff1_used#17$rclk$8| #b01101010)
(= |z$w_buff1_used#20$rclk$8| #b10111100)
(= |weak$$choice1#8$wclk$8| #b01101010)
(= |weak$$choice1#3$rclk$8| #b11111101)
(= __unbuffered_p3_EAX$read_delayed_var$object #b00000000000000000000000000000001)
(= |__unbuffered_p0_EAX#1$wclk$8| #b00001110)
(= |__unbuffered_p1_EAX#1$wclk$8| #b00001111)
(= |__unbuffered_p2_EAX#1$wclk$8| #b00010000)
(= |__unbuffered_p3_EAX#1$wclk$8| #b00010010)
(= |__unbuffered_p3_EAX#10$wclk$8| #b11111101)
(= |__unbuffered_p3_EAX$read_delayed#1$wclk$8| #b00110011)
(= |__unbuffered_p3_EAX$read_delayed_var#1$wclk$8| #b00110100)
(= |__unbuffered_p3_EAX$read_delayed_var#2$wclk$8| #b01101010)
(= |z$flush_delayed#1$wclk$8| #b01000010)
(= |z$flush_delayed#3$wclk$8| #b01101010)
(= |z$mem_tmp#1$wclk$8| #b01000011)
(= |z$mem_tmp#2$wclk$8| #b01101010)
(= |z$r_buff0_thd3#5$wclk$8| #b10110010)
(= |z$r_buff0_thd3#14$wclk$8| #b10110101)
(= |z$r_buff1_thd1#4$wclk$8| #b10110010)
(= |z$r_buff1_thd2#4$wclk$8| #b10110010)
(= |z$r_buff1_thd3#4$wclk$8| #b10110010)
(= |z$r_buff1_thd3#11$wclk$8| #b10110101)
(= |weak$$choice0#1$wclk$8| #b00111100)
(= |weak$$choice0#2$wclk$8| #b01101010)
(= |weak$$choice1#1$wclk$8| #b00111101)
(= |weak$$choice1#7$wclk$8| #b11111101)
(= |weak$$choice2#1$wclk$8| #b00111110)
(= |weak$$choice2#2$wclk$8| #b01101010)
(= t1$66$spwnclk$8 #b01011011)
(= t1$71$spwnclk$8 #b01011111)
(= t1$76$spwnclk$8 #b01100100)
(= t1$81$spwnclk$8 #b01101001)
(= |main::1::t2712!0@1$wclk$8| #b00000000)
(= |main::1::t2713!0@1$wclk$8| #b00000001)
(= |main::1::t2714!0@1$wclk$8| #b00000010)
(= __unbuffered_p3_EAX$read_delayed_var$object$wclk$8 #b00000011)
(= |__CPROVER_dead_object#1$wclk$8| #b00000100)
(= |__CPROVER_deallocated#1$wclk$8| #b00000101)
(= |__CPROVER_malloc_is_new_array#1$wclk$8| #b00000110)
(= |__CPROVER_malloc_object#1$wclk$8| #b00000111)
(= |__CPROVER_malloc_size#1$wclk$8| #b00001000)
(= |__CPROVER_memory_leak#1$wclk$8| #b00001001)
(= |__CPROVER_next_thread_id#1$wclk$8| #b00001010)
(= |__CPROVER_pipe_count#1$wclk$8| #b00001011)
(= |__unbuffered_p3_EAX$flush_delayed#1$wclk$8| #b00011000)
(= |__unbuffered_p3_EAX$mem_tmp#1$wclk$8| #b00011001)
(= |__unbuffered_p3_EAX$r_buff0_thd0#1$wclk$8| #b00011010)
(= |__unbuffered_p3_EAX$r_buff0_thd1#1$wclk$8| #b00011011)
(= |__unbuffered_p3_EAX$r_buff0_thd2#1$wclk$8| #b00011100)
(= |__unbuffered_p3_EAX$r_buff0_thd3#1$wclk$8| #b00011101)
(= |__unbuffered_p3_EAX$r_buff0_thd4#1$wclk$8| #b00011110)
(= |__unbuffered_p3_EAX$r_buff1_thd0#1$wclk$8| #b00100111)
(= |__unbuffered_p3_EAX$r_buff1_thd1#1$wclk$8| #b00101111)
(= |__unbuffered_p3_EAX$r_buff1_thd2#1$wclk$8| #b00110000)
(= |__unbuffered_p3_EAX$r_buff1_thd3#1$wclk$8| #b00110001)
(= |__unbuffered_p3_EAX$r_buff1_thd4#1$wclk$8| #b00110010)
(= |__unbuffered_p3_EAX$w_buff0#1$wclk$8| #b00110101)
(= |__unbuffered_p3_EAX$w_buff0_used#1$wclk$8| #b00110110)
(= |__unbuffered_p3_EAX$w_buff1#1$wclk$8| #b00110111)
(= |__unbuffered_p3_EAX$w_buff1_used#1$wclk$8| #b00111000)
(= |main$tmp_guard0#1$wclk$8| #b00111010)
(= |main$tmp_guard1#1$wclk$8| #b00111011)
(= |z$read_delayed#1$wclk$8| #b01010000)
(= |z$read_delayed_var#1$wclk$8| #b01010001)
(= |main::1::t2711!0@1#1$wclk$8| #b01010110)
(= |__CPROVER_next_thread_id#2$wclk$8| #b01010111)
(= |main::1::t2711!0@1#2$wclk$8| #b01011010)
(= |main::1::t2712!0@1#1$wclk$8| #b01011100)
(= |__CPROVER_next_thread_id#3$rclk$8| #b01011101)
(= |__CPROVER_next_thread_id#5$wclk$8| #b01011101)
(= |main::1::t2712!0@1#2$wclk$8| #b01011110)
(= |main::1::t2713!0@1#1$wclk$8| #b01100000)
(= |__CPROVER_next_thread_id#6$rclk$8| #b01100001)
(= |__CPROVER_next_thread_id#8$wclk$8| #b01100001)
(= |main::1::t2713!0@1#2$wclk$8| #b01100010)
(= |main::1::t2714!0@1#1$wclk$8| #b01100101)
(= |__CPROVER_next_thread_id#9$rclk$8| #b01100111)
(= |__CPROVER_next_thread_id#11$wclk$8| #b01100111)
(= |main::1::t2714!0@1#2$wclk$8| #b01101000)
(= |main$tmp_guard0#2$wclk$8| #b11111010)
(= |main$tmp_guard0#3$rclk$8| #b11111011)
(= |z$r_buff0_thd0#2$rclk$8| #b11111100)
(= |main$tmp_guard1#3$rclk$8| #b11111101)
(= |__unbuffered_p3_EAX$read_delayed_var$object#1$rclk$8| #b11111101)
(= |main$tmp_guard1#4$wclk$8| #b11111101)
(= |main$tmp_guard1#5$rclk$8| #b11111110)
(= |main$tmp_guard1#6$rclk$8| #b11111111)
(= array_of.0 @fun_4)
(= |__CPROVER_threads_exited#2| @fun_4)
(= |__CPROVER_threads_exited#4| @fun_4)
(= |__CPROVER_threads_exited#6| @fun_4)
(= |__CPROVER_threads_exited#8| @fun_4)
(function @fun_4
 (type (Array (_ BitVec 32) (_ BitVec 1)))
 (default #b1))

real	0m0.029s
user	0m0.026s
sys	0m0.003s
State: AC Run_time: 0.03135251998901367